p tw 40 84
0 1
0 21
0 13
0 11
0 4
1 18
1 24
1 19
1 3
2 3
2 12
2 25
2 32
2 33
2 7
3 21
3 24
3 6
4 5
4 8
4 33
4 16
5 7
5 8
6 7
6 20
6 30
7 12
7 9
8 9
8 14
9 22
9 29
9 23
9 18
9 20
9 26
10 11
10 15
10 23
11 16
12 13
12 19
12 31
12 37
13 26
13 19
13 34
13 30
13 39
14 26
14 24
14 18
14 27
14 34
15 28
15 19
16 17
16 28
16 30
16 22
18 19
18 20
18 31
18 37
18 39
19 26
19 20
20 27
20 24
20 35
22 35
23 39
24 31
24 37
26 38
28 38
30 31
30 35
30 36
32 36
34 35
35 39
36 37
